h 1 0
h 2 0
h -2 -3 0
h -4 3 0
h 5 4 0
h -2 -5 0
600424533273599976 -6 0
951201825543495602 -7 0
103293680366112508 -8 0
285979937149504840 -9 0
497007020215027493 -10 0
142233692476778915 -11 0
27171356011909659 -12 0
449316302460589772 -13 0
1043894028604550642 -14 0
959722156575268254 -15 0
49272255534649044 -16 0
463842407122259775 -17 0
630723335678659260 -18 0
896307692690627020 -19 0
236365236023266753 -20 0
343034013539060466 -21 0
81388054223141745 -22 0
54264756703658109 -23 0
394315988659654240 -24 0
964856758211491825 -25 0
188116622953602036 -26 0
1002243417133534989 -27 0
155482920513335009 -28 0
h 29 3 0
955429472109927746 -29 0
943716485488890161 -30 0
318095242773097945 -31 0
939737578772817904 -32 0
658878300801885061 -33 0
969636291203754780 -34 0
1079714717914195646 -35 0
429992826990291674 -36 0
1138068985174016398 -37 0
493016180816896368 -38 0
